10
45
0 1 175
0 2 50
0 3 148
0 4 82
0 5 98
0 6 76
0 7 149
0 8 89
0 9 59
1 2 153
1 3 27
1 4 93
1 5 97
1 6 99
1 7 26
1 8 86
1 9 116
2 3 126
2 4 60
2 5 56
2 6 54
2 7 127
2 8 67
2 9 37
3 4 66
3 5 92
3 6 72
3 7 21
3 8 59
3 9 89
4 5 106
4 6 46
4 7 67
4 8 7
4 9 57
5 6 60
5 7 71
5 8 107
5 9 49
6 7 73
6 8 47
6 9 17
7 8 60
7 9 90
8 9 58
